objective value:                                  -76
t_x29                                               1 	(obj:-100)
t_y29_395                                           1 	(obj:1)
t_y29_238                                           1 	(obj:1)
t_y29_241                                           1 	(obj:1)
t_y29_35                                            1 	(obj:1)
t_y29_352                                           1 	(obj:1)
t_y29_295                                           1 	(obj:1)
t_y29_231                                           1 	(obj:1)
t_y29_380                                           1 	(obj:1)
t_y29_61                                            1 	(obj:1)
t_y29_439                                           1 	(obj:1)
t_y29_87                                            1 	(obj:1)
t_y29_31                                            1 	(obj:1)
t_y29_438                                           1 	(obj:1)
t_y29_225                                           1 	(obj:1)
t_y29_140                                           1 	(obj:1)
t_y29_428                                           1 	(obj:1)
t_y29_253                                           1 	(obj:1)
t_y29_80                                            1 	(obj:1)
t_y29_404                                           1 	(obj:1)
t_y14_29                                            1 	(obj:1)
t_y29_51                                            1 	(obj:1)
t_y29_136                                           1 	(obj:1)
t_y29_364                                           1 	(obj:1)
t_y29_46                                            1 	(obj:1)
